GLPSOL: GLPK LP/MIP Solver, v4.55
Parameter(s) specified in the command line:
 -m tmp.mod
Reading model section from tmp.mod...
Reading data section from tmp.mod...
199 lines were read
Generating obj...
Generating kirhoff...
Generating init_charge...
Generating batt_size...
Model has been successfully generated
GLPK Simplex Optimizer, v4.55
102 rows, 211 columns, 418 non-zeros
Preprocessing...
86 rows, 177 columns, 358 non-zeros
Scaling...
 A: min|aij| =  1.000e+00  max|aij| =  1.000e+00  ratio =  1.000e+00
Problem data seem to be well scaled
Constructing initial basis...
Size of triangular part is 74
      0: obj =   0.000000000e+00  infeas =  1.100e+02 (12)
*    28: obj =   6.000000000e+00  infeas =  0.000e+00 (10)
*    37: obj =   5.000000000e+00  infeas =  0.000e+00 (8)
OPTIMAL LP SOLUTION FOUND
Time used:   0.0 secs
Memory used: 0.5 Mb (506209 bytes)
#OUTPUT:
5
-8 0 -18 -18 -15 0 0 0 -8 0 3 0 0 0 0 -3 0 0 0 0 0 0 -3 3 0 0 0 0 0 0 0 
-10 0 -18 -17 -3 -1 -8 -1 -10 -1 -3 0 -19 -8 1 -16 0 0 0 0 0 0 1 16 0 -1 1 0 0 0 0 
0 0 -3 0 0 0 0 0 0 0 0 -3 0 0 0 0 0 0 0 0 -3 0 0 0 0 0 0 0 0 0 0 
#OUTPUT END
Model has been successfully processed
